\ Model Flowshop_Hybride_Exact
\ LP format - for model browsing. Use MPS format to capture full model detail.
Minimize
  Cmax
Subject To
 R0: x_1_2_1_1 + x_1_3_1_1 + x_2_1_1_1 + x_2_3_1_1 + x_3_1_1_1 + x_3_2_1_1
   <= 1
 R1: x_1_2_2_1 + x_1_3_2_1 + x_2_1_2_1 + x_2_3_2_1 + x_3_1_2_1 + x_3_2_2_1
   <= 1
 R2: x_1_2_1_2 + x_1_3_1_2 + x_2_1_1_2 + x_2_3_1_2 + x_3_1_1_2 + x_3_2_1_2
   <= 1
 R3: x_1_2_2_2 + x_1_3_2_2 + x_2_1_2_2 + x_2_3_2_2 + x_3_1_2_2 + x_3_2_2_2
   <= 1
 R4: x_2_1_1_1 + x_2_1_2_1 + x_3_1_1_1 + x_3_1_2_1 = 1
 R5: x_2_1_1_2 + x_2_1_2_2 + x_3_1_1_2 + x_3_1_2_2 = 1
 R6: x_1_2_1_1 + x_1_2_2_1 + x_3_2_1_1 + x_3_2_2_1 = 1
 R7: x_1_2_1_2 + x_1_2_2_2 + x_3_2_1_2 + x_3_2_2_2 = 1
 R8: x_1_3_1_1 + x_1_3_2_1 + x_2_3_1_1 + x_2_3_2_1 = 1
 R9: x_1_3_1_2 + x_1_3_2_2 + x_2_3_1_2 + x_2_3_2_2 = 1
 R10: x_1_2_1_1 + x_1_2_2_1 + x_1_3_1_1 + x_1_3_2_1 = 1
 R11: x_1_2_1_2 + x_1_2_2_2 + x_1_3_1_2 + x_1_3_2_2 = 1
 R12: x_2_1_1_1 + x_2_1_2_1 + x_2_3_1_1 + x_2_3_2_1 = 1
 R13: x_2_1_1_2 + x_2_1_2_2 + x_2_3_1_2 + x_2_3_2_2 = 1
 R14: x_3_1_1_1 + x_3_1_2_1 + x_3_2_1_1 + x_3_2_2_1 = 1
 R15: x_3_1_1_2 + x_3_1_2_2 + x_3_2_1_2 + x_3_2_2_2 = 1
 R16: - 19 x_1_2_1_1 - t_1_1 + t_2_1 >= -16
 R17: - 19 x_1_2_2_1 - t_1_1 + t_2_1 >= -16
 R18: - 19 x_1_2_1_2 - t_1_2 + t_2_2 >= -17
 R19: - 19 x_1_2_2_2 - t_1_2 + t_2_2 >= -17
 R20: - 19 x_1_3_1_1 - t_1_1 + t_3_1 >= -16
 R21: - 19 x_1_3_2_1 - t_1_1 + t_3_1 >= -16
 R22: - 19 x_1_3_1_2 - t_1_2 + t_3_2 >= -17
 R23: - 19 x_1_3_2_2 - t_1_2 + t_3_2 >= -17
 R24: - 19 x_2_1_1_1 + t_1_1 - t_2_1 >= -17
 R25: - 19 x_2_1_2_1 + t_1_1 - t_2_1 >= -17
 R26: - 19 x_2_1_1_2 + t_1_2 - t_2_2 >= -15
 R27: - 19 x_2_1_2_2 + t_1_2 - t_2_2 >= -15
 R28: - 19 x_2_3_1_1 - t_2_1 + t_3_1 >= -17
 R29: - 19 x_2_3_2_1 - t_2_1 + t_3_1 >= -17
 R30: - 19 x_2_3_1_2 - t_2_2 + t_3_2 >= -15
 R31: - 19 x_2_3_2_2 - t_2_2 + t_3_2 >= -15
 R32: - 19 x_3_1_1_1 + t_1_1 - t_3_1 >= -15
 R33: - 19 x_3_1_2_1 + t_1_1 - t_3_1 >= -15
 R34: - 19 x_3_1_1_2 + t_1_2 - t_3_2 >= -16
 R35: - 19 x_3_1_2_2 + t_1_2 - t_3_2 >= -16
 R36: - 19 x_3_2_1_1 + t_2_1 - t_3_1 >= -15
 R37: - 19 x_3_2_2_1 + t_2_1 - t_3_1 >= -15
 R38: - 19 x_3_2_1_2 + t_2_2 - t_3_2 >= -16
 R39: - 19 x_3_2_2_2 + t_2_2 - t_3_2 >= -16
 R40: - t_1_1 + t_1_2 >= 3
 R41: - t_2_1 + t_2_2 >= 2
 R42: - t_3_1 + t_3_2 >= 4
 R43: - 2 t_1_1 + t_1_2 <= 3
 R44: - 2 t_2_1 + t_2_2 <= 2
 R45: - 2 t_3_1 + t_3_2 <= 4
 R46: Cmax - t_1_2 >= 2
 R47: Cmax - t_2_2 >= 4
 R48: Cmax - t_3_2 >= 3
 R49: x_1_2_1_1 <= 1
 R50: x_1_2_1_1 >= 0
 R51: x_1_2_2_1 <= 1
 R52: x_1_2_2_1 >= 0
 R53: x_1_2_1_2 <= 1
 R54: x_1_2_1_2 >= 0
 R55: x_1_2_2_2 <= 1
 R56: x_1_2_2_2 >= 0
 R57: x_1_3_1_1 <= 1
 R58: x_1_3_1_1 >= 0
 R59: x_1_3_2_1 <= 1
 R60: x_1_3_2_1 >= 0
 R61: x_1_3_1_2 <= 1
 R62: x_1_3_1_2 >= 0
 R63: x_1_3_2_2 <= 1
 R64: x_1_3_2_2 >= 0
 R65: x_2_1_1_1 <= 1
 R66: x_2_1_1_1 >= 0
 R67: x_2_1_2_1 <= 1
 R68: x_2_1_2_1 >= 0
 R69: x_2_1_1_2 <= 1
 R70: x_2_1_1_2 >= 0
 R71: x_2_1_2_2 <= 1
 R72: x_2_1_2_2 >= 0
 R73: x_2_3_1_1 <= 1
 R74: x_2_3_1_1 >= 0
 R75: x_2_3_2_1 <= 1
 R76: x_2_3_2_1 >= 0
 R77: x_2_3_1_2 <= 1
 R78: x_2_3_1_2 >= 0
 R79: x_2_3_2_2 <= 1
 R80: x_2_3_2_2 >= 0
 R81: x_3_1_1_1 <= 1
 R82: x_3_1_1_1 >= 0
 R83: x_3_1_2_1 <= 1
 R84: x_3_1_2_1 >= 0
 R85: x_3_1_1_2 <= 1
 R86: x_3_1_1_2 >= 0
 R87: x_3_1_2_2 <= 1
 R88: x_3_1_2_2 >= 0
 R89: x_3_2_1_1 <= 1
 R90: x_3_2_1_1 >= 0
 R91: x_3_2_2_1 <= 1
 R92: x_3_2_2_1 >= 0
 R93: x_3_2_1_2 <= 1
 R94: x_3_2_1_2 >= 0
 R95: x_3_2_2_2 <= 1
 R96: x_3_2_2_2 >= 0
 R97: a_1_1_1 <= 1
 R98: a_1_1_1 >= 0
 R99: a_1_2_1 <= 1
 R100: a_1_2_1 >= 0
 R101: a_1_1_2 <= 1
 R102: a_1_1_2 >= 0
 R103: a_1_2_2 <= 1
 R104: a_1_2_2 >= 0
 R105: a_2_1_1 <= 1
 R106: a_2_1_1 >= 0
 R107: a_2_2_1 <= 1
 R108: a_2_2_1 >= 0
 R109: a_2_1_2 <= 1
 R110: a_2_1_2 >= 0
 R111: a_2_2_2 <= 1
 R112: a_2_2_2 >= 0
 R113: a_3_1_1 <= 1
 R114: a_3_1_1 >= 0
 R115: a_3_2_1 <= 1
 R116: a_3_2_1 >= 0
 R117: a_3_1_2 <= 1
 R118: a_3_1_2 >= 0
 R119: a_3_2_2 <= 1
 R120: a_3_2_2 >= 0
 R121: Cmax >= 0
 R122: t_1_1 >= 0
 R123: t_1_2 >= 0
 R124: t_2_1 >= 0
 R125: t_2_2 >= 0
 R126: t_3_1 >= 0
 R127: t_3_2 >= 0
 R128: a_1_1_1 + a_1_2_1 = 1
 R129: x_1_2_1_1 + x_1_3_1_1 - a_1_1_1 <= 0
 R130: x_1_2_2_1 + x_1_3_2_1 - a_1_2_1 <= 0
 R131: a_1_1_2 + a_1_2_2 = 1
 R132: x_1_2_1_2 + x_1_3_1_2 - a_1_1_2 <= 0
 R133: x_1_2_2_2 + x_1_3_2_2 - a_1_2_2 <= 0
 R134: a_2_1_1 + a_2_2_1 = 1
 R135: x_2_1_1_1 + x_2_3_1_1 - a_2_1_1 <= 0
 R136: x_2_1_2_1 + x_2_3_2_1 - a_2_2_1 <= 0
 R137: a_2_1_2 + a_2_2_2 = 1
 R138: x_2_1_1_2 + x_2_3_1_2 - a_2_1_2 <= 0
 R139: x_2_1_2_2 + x_2_3_2_2 - a_2_2_2 <= 0
 R140: a_3_1_1 + a_3_2_1 = 1
 R141: x_3_1_1_1 + x_3_2_1_1 - a_3_1_1 <= 0
 R142: x_3_1_2_1 + x_3_2_2_1 - a_3_2_1 <= 0
 R143: a_3_1_2 + a_3_2_2 = 1
 R144: x_3_1_1_2 + x_3_2_1_2 - a_3_1_2 <= 0
 R145: x_3_1_2_2 + x_3_2_2_2 - a_3_2_2 <= 0
Bounds
Binaries
 x_1_2_1_1 x_1_2_2_1 x_1_2_1_2 x_1_2_2_2 x_1_3_1_1 x_1_3_2_1 x_1_3_1_2
 x_1_3_2_2 x_2_1_1_1 x_2_1_2_1 x_2_1_1_2 x_2_1_2_2 x_2_3_1_1 x_2_3_2_1
 x_2_3_1_2 x_2_3_2_2 x_3_1_1_1 x_3_1_2_1 x_3_1_1_2 x_3_1_2_2 x_3_2_1_1
 x_3_2_2_1 x_3_2_1_2 x_3_2_2_2 a_1_1_1 a_1_2_1 a_1_1_2 a_1_2_2 a_2_1_1
 a_2_2_1 a_2_1_2 a_2_2_2 a_3_1_1 a_3_2_1 a_3_1_2 a_3_2_2
End
